Cars = 1..100;
Options = 1..5;
Classes = 1..18;
sequenceMinCapacity = [0, 0, 0, 0, 0];
sequenceMaxCapacity = [1, 2, 1, 2, 1];
sequenceSize = [2, 3, 3, 5, 5];
numOrdered = [5, 3, 7, 1, 10, 2, 11, 5, 4, 6, 12, 1, 1, 5, 9, 5, 12, 1];
classHasOption = [| true,  true, false, false,  true
                  | true,  true, false,  true, false
                  | true,  true,  true, false, false
                  |false,  true,  true,  true, false
                  | true,  true, false, false, false
                  | true, false, false, false,  true
                  | true, false, false,  true, false
                  | true, false,  true, false, false
                  |false,  true, false, false,  true
                  |false,  true, false,  true, false
                  |false,  true,  true, false, false
                  |false, false,  true, false,  true
                  |false, false,  true,  true, false
                  | true, false, false, false, false
                  |false,  true, false, false, false
                  |false, false, false, false,  true
                  |false, false, false,  true, false
                  |false, false,  true, false, false|];
optionOrdering = [1, 5, 3, 4, 2];
